letting LARGEST be 4

letting width be 10
letting height be 10

letting num_types be [4,3,2,1]

letting column_tallies be [2,2,0,5,0,1,3,2,2,3]

letting row_tallies be [1,5,1,4,0,3,1,1,3,1]

letting hint be [ [7,7,7,7,7,7,7,7,7,7],
		  [7,7,7,3,7,7,6,7,2,7],
		  [7,7,7,7,7,7,7,7,7,7],
		  [7,7,7,4,7,0,7,6,7,5],
		  [7,7,7,7,7,7,7,7,7,7],		  
		  [7,5,7,0,7,7,3,7,7,7],
		  [7,7,7,7,7,7,7,7,7,7],		  
		  [7,7,7,7,7,7,7,7,7,1],		  
		  [7,1,7,3,7,7,7,7,7,7],
		  [7,7,7,7,7,7,7,7,7,0] ]		  


